sat
(:max-memory              113.60
 :memory                  34.35
 :num-allocs              2006229159
 :rlimit-count            42930019
 :sat-backjumps           24499
 :sat-backtracks          3
 :sat-conflicts           24502
 :sat-decisions           46663
 :sat-del-clause          102493
 :sat-elim-bool-vars-res  17608
 :sat-elim-clauses        2799
 :sat-elim-literals       4023
 :sat-gc-clause           9496
 :sat-minimized-lits      2179319
 :sat-mk-clause-2ary      72178
 :sat-mk-clause-3ary      28947
 :sat-mk-clause-nary      208281
 :sat-mk-var              49763
 :sat-probing-assigned    341
 :sat-propagations-2ary   10850336
 :sat-propagations-nary   30777218
 :sat-restarts            3651
 :sat-scc-elim-binary     11
 :sat-scc-elim-vars       43
 :sat-subs-resolution     218
 :sat-subs-resolution-dyn 172674
 :sat-subsumed            17936
 :sat-units               475
 :solve-eqs-elim-vars     9
 :solve-eqs-steps         2689
 :time                    14.03
 :total-time              13.99)
